100
200
140
140
138
138
137
137
136
136
135
134
132
132
131
130
129
129
128
128
127
127
127
126
126
126
125
123
123
122
114
114
113
113
112
111
109
107
105
104
104
104
102
97
97
97
96
95
95
94
92
92
91
90
87
87
86
85
84
81
80
77
77
76
73
70
70
70
68
65
64
64
63
63
62
62
60
60
58
56
54
53
51
50
47
47
46
42
42
41
41
39
39
36
33
29
26
24
23
21
20
20
